g3 0 1 0	# problem d7n5R1R6d005d05
 5 6 1 0 1	# vars, constraints, objectives, ranges, eqns
 3 1	# nonlinear constraints, objectives
 0 0	# network constraints: nonlinear, linear
 5 5 5	# nonlinear vars in constraints, objectives, both
 0 0 0 1	# linear network variables; functions; arith, flags
 0 0 0 0 0	# discrete variables: binary, integer, nonlinear (b,c,o)
 27 5	# nonzeros in Jacobian, gradients
 0 0	# max name lengths: constraints, variables
 0 0 0 0 0	# common exprs: b,c,o,c1,o1
b
0 0.26 2.55
0 0.44 2.46
0 0.93 2.48
0 0.93 2.8
0 0.43 2.66
r
2 14.347
2 203.941
2 470.702
4 16.887
2 30.786
2 53.159
C0
o2
o2
o2
n0.99
v0
v1
v4
C1
o54
6
o2
o2
o2
n4.84
v0
v1
v4
o2
o2
o2
o2
n4.69
v0
v0
v1
v3
o2
o2
o2
o2
n6.52
v0
v1
v2
v2
o2
o2
o2
o2
n6.9
v0
v2
v2
v2
o2
o2
o2
o2
n5.4
v1
v1
v1
v1
o2
o2
o2
o2
n3.29
v1
v2
v2
v2
C2
o54
12
o2
o2
o2
n8.5
v0
v1
v4
o2
o2
o2
o2
n5.23
v0
v0
v1
v3
o2
o2
o2
o2
n5.9
v0
v1
v2
v2
o2
o2
o2
o2
n1.05
v0
v2
v2
v2
o2
o2
o2
o2
n8.14
v1
v1
v1
v1
o2
o2
o2
o2
n2.68
v1
v2
v2
v2
o2
o2
o2
o2
o2
n9.29
v0
v0
v0
v0
v2
o2
o2
o2
o2
o2
n9.78
v0
v0
v1
v1
v2
o2
o2
o2
o2
o2
n3.36
v0
v0
v3
v3
v3
o2
o2
o2
o2
o2
n2.78
v0
v1
v2
v2
v4
o2
o2
o2
o2
o2
n3.99
v0
v2
v2
v2
v2
o2
o2
o2
o2
o2
n2.92
v1
v1
v2
v2
v3
C3
n0
C4
n0
C5
n0
O0 0
o54
39
o2
o2
o2
n8.23
v0
v1
v4
o2
o2
o2
o2
n2.69
v0
v0
v1
v3
o2
o2
o2
o2
n8.95
v0
v1
v2
v2
o2
o2
o2
o2
n9.51
v0
v2
v2
v2
o16
o2
o2
o2
o2
n9.3
v1
v1
v1
v1
o2
o2
o2
o2
n4.77
v1
v2
v2
v2
o2
o2
o2
o2
o2
n7.1
v0
v0
v0
v0
v2
o2
o2
o2
o2
o2
n7.18
v0
v0
v1
v1
v2
o2
o2
o2
o2
o2
n7.23
v0
v0
v3
v3
v3
o2
o2
o2
o2
o2
n8.2
v0
v1
v2
v2
v4
o2
o2
o2
o2
o2
n9.37
v0
v2
v2
v2
v2
o2
o2
o2
o2
o2
n3.63
v1
v1
v2
v2
v3
o2
o2
o2
o2
o2
o2
n4.78
v0
v0
v0
v0
v1
v2
o2
o2
o2
o2
o2
o2
n7.61
v0
v0
v0
v1
v3
v4
o2
o2
o2
o2
o2
o2
n5.15
v0
v0
v1
v2
v3
v3
o2
o2
o2
o2
o2
o2
n4.44
v0
v1
v1
v1
v2
v4
o2
o2
o2
o2
o2
o2
n1.18
v0
v2
v2
v3
v3
v4
o2
o2
o2
o2
o2
o2
n8.43
v1
v1
v1
v1
v1
v4
o2
o2
o2
o2
o2
o2
n3.78
v1
v1
v1
v2
v2
v2
o2
o2
o2
o2
o2
o2
n7.12
v1
v2
v2
v2
v3
v3
o2
o2
o2
o2
o2
o2
n5.64
v1
v2
v2
v2
v3
v4
o2
o2
o2
o2
o2
o2
n8.22
v1
v3
v3
v3
v3
v3
o2
o2
o2
o2
o2
o2
o2
n6.12
v0
v0
v0
v0
v0
v2
v2
o2
o2
o2
o2
o2
o2
o2
n5.53
v0
v0
v0
v1
v1
v1
v4
o2
o2
o2
o2
o2
o2
o2
n7.05
v0
v0
v1
v2
v2
v2
v3
o2
o2
o2
o2
o2
o2
o2
n4.18
v0
v0
v1
v2
v3
v4
v4
o2
o2
o2
o2
o2
o2
o2
n2.45
v0
v0
v1
v3
v3
v3
v4
o2
o2
o2
o2
o2
o2
o2
n0.53
v0
v0
v1
v3
v3
v4
v4
o2
o2
o2
o2
o2
o2
o2
n9.93
v0
v0
v2
v3
v3
v3
v3
o2
o2
o2
o2
o2
o2
o2
n6.96
v0
v1
v1
v1
v1
v1
v1
o2
o2
o2
o2
o2
o2
o2
n6.51
v0
v1
v1
v1
v2
v3
v4
o2
o2
o2
o2
o2
o2
o2
n6.95
v0
v1
v1
v1
v3
v3
v3
o2
o2
o2
o2
o2
o2
o2
n6.73
v0
v2
v2
v3
v4
v4
v4
o2
o2
o2
o2
o2
o2
o2
n0.71
v1
v1
v1
v2
v3
v3
v3
o2
o2
o2
o2
o2
o2
o2
n5.9
v1
v1
v2
v2
v2
v2
v2
o2
o2
o2
o2
o2
o2
o2
n6.69
v1
v1
v2
v2
v3
v4
v4
o2
o2
o2
o2
o2
o2
o2
n6.23
v1
v2
v2
v2
v2
v3
v3
o2
o2
o2
o2
o2
o2
o2
n9.32
v1
v2
v3
v4
v4
v4
v4
o2
o2
o2
o2
o2
o2
o2
n8.68
v2
v3
v3
v3
v3
v3
v4
k4
5
10
16
21
J0 5
0 -9.59
1 -9.72
2 4.72
3 9.77
4 8.11
J1 5
0 0.26
1 -0.49
2 7.92
3 5.46
4 3.98
J2 5
0 2.66
1 8.28
2 1.56
3 2.48
4 10
J3 2
2 1.74
4 9.01
J4 5
0 6.17
1 -1.97
2 4.96
3 7.1
4 2.12
J5 5
0 2.77
1 7.38
2 7.04
3 8.03
4 7.5
G0 5
0 5.26
1 0.51
2 3.16
3 0.11
4 -8.85
